14941
1 0 1 1 0 1 0 0 1 0 0 1 0 0 1 0 0 1 0 0 1 0 0 0 1 0 0 0 0 0 
20 11 20 14 20 5 2 24 14 17 5 8 8 20 3 14 14 17 5 11 2 0 5 3 5 8 2 24 5 24 5 25 13 25 20 20 24 15 0 14 0 14 15 8 24 14 11 13 11 8 5 14 14 5 20 20 17 11 0 14 0 5 20 11 11 11 24 0 5 24 20 20 11 17 24 8 24 20 14 24 20 7 20 17 2 17 17 7 20 5 2 24 17 11 0 24 2 17 25 13 8 2 17 25 2 25 7 11 14 8 14 14 2 11 11 25 24 24 24 24 5 8 25 13 8 11 5 24 0 25 0 11 24 11 8 14 7 5 20 17 0 8 20 14 8 25 25 5 2 5 
